decision_x1=[0,7];
decision_x2=[0,7];
decision_x3=[0,7];
decision_x4=[0,7];
decision_x5=[0,7];
decision_x6=[0,7];
decision_x7=[0,7];
decision_x8=[0,7];
decision_x9=[0,7];
decision_x10=[0,7];
decision_x11=[0,7];
decision_x12=[0,7];
decision_x13=[0,7];
decision_x14=[0,7];
decision_x15=[0,7];
decision_x16=[0,7];
random_y1=[0,7];
random_y2=[0,7];
random_y3=[0,7];
random_y4=[0,7];
random_y5=[0,7];
random_y6=[0,7];
random_y7=[0,7];
constraint_x2_x1=[
0,0,5|
0,1,5.1|
0,2,8.5|
0,3,9.4|
0,4,4.5|
0,5,4.6|
0,6,1.9|
0,7,5.6|
1,0,9.5|
1,1,10|
1,2,9.5|
1,3,2.7|
1,4,5.2|
1,5,1.6|
1,6,8|
1,7,6.2|
2,0,1.2|
2,1,1.4|
2,2,5.1|
2,3,5.5|
2,4,1.7|
2,5,1.6|
2,6,2.9|
2,7,8.2|
3,0,1.8|
3,1,0.35|
3,2,5.5|
3,3,5.1|
3,4,2.5|
3,5,9.1|
3,6,0.94|
3,7,5.5|
4,0,2.1|
4,1,0.55|
4,2,3.4|
4,3,0.32|
4,4,5.7|
4,5,3.8|
4,6,3.2|
4,7,7.7|
5,0,7.5|
5,1,0.035|
5,2,4.6|
5,3,4.2|
5,4,7.8|
5,5,5.5|
5,6,7.6|
5,7,3.9|
6,0,4.2|
6,1,0.62|
6,2,2.6|
6,3,8.9|
6,4,3.5|
6,5,0.0059|
6,6,4.1|
6,7,7.5|
7,0,8.2|
7,1,0.15|
7,2,3.1|
7,3,8.3|
7,4,9.4|
7,5,8|
7,6,6.9|
7,7,0.28|
];
constraint_x3_x2=[
0,0,4.3|
0,1,3.8|
0,2,0.24|
0,3,1.1|
0,4,9.8|
0,5,3.6|
0,6,4.1|
0,7,4|
1,0,1.3|
1,1,4.5|
1,2,9.5|
1,3,3.5|
1,4,3.3|
1,5,5|
1,6,5.5|
1,7,3.9|
2,0,6.1|
2,1,5.7|
2,2,6|
2,3,4.3|
2,4,7.4|
2,5,4.3|
2,6,9.2|
2,7,4|
3,0,5.1|
3,1,8.1|
3,2,2.8|
3,3,9.9|
3,4,6.1|
3,5,4.4|
3,6,1|
3,7,3.7|
4,0,9.2|
4,1,3.5|
4,2,5.1|
4,3,8.4|
4,4,6.2|
4,5,7.1|
4,6,4.9|
4,7,7.7|
5,0,2.5|
5,1,4.4|
5,2,3.9|
5,3,3.6|
5,4,1.4|
5,5,4.9|
5,6,2.5|
5,7,2.8|
6,0,9.9|
6,1,1.6|
6,2,2.9|
6,3,8|
6,4,8.1|
6,5,8.4|
6,6,8.4|
6,7,2.3|
7,0,6.7|
7,1,7.9|
7,2,3.6|
7,3,8.7|
7,4,5.3|
7,5,8.5|
7,6,9.5|
7,7,3.1|
];
constraint_x4_x3=[
0,0,2.1|
0,1,6.3|
0,2,8.5|
0,3,9.6|
0,4,8.5|
0,5,1.2|
0,6,7.9|
0,7,3.1|
1,0,3.7|
1,1,4.7|
1,2,0.24|
1,3,2.6|
1,4,1.2|
1,5,0.038|
1,6,5.1|
1,7,0.25|
2,0,2.1|
2,1,7.8|
2,2,9.3|
2,3,3.2|
2,4,2.9|
2,5,9.5|
2,6,0.45|
2,7,0.71|
3,0,9.2|
3,1,9.7|
3,2,5.3|
3,3,3.5|
3,4,7.7|
3,5,6.5|
3,6,9.5|
3,7,4.1|
4,0,0.57|
4,1,9.5|
4,2,0.17|
4,3,5|
4,4,0.89|
4,5,6.3|
4,6,3|
4,7,1|
5,0,5.8|
5,1,4.6|
5,2,5.9|
5,3,4.3|
5,4,8|
5,5,6.4|
5,6,6.8|
5,7,6.8|
6,0,9.3|
6,1,3.8|
6,2,3.1|
6,3,8.3|
6,4,3.3|
6,5,2|
6,6,4.1|
6,7,3.6|
7,0,7.8|
7,1,6.6|
7,2,4.6|
7,3,9.4|
7,4,9.2|
7,5,6.8|
7,6,7.3|
7,7,0.48|
];
constraint_x5_x1=[
0,0,3.2|
0,1,4.9|
0,2,7.9|
0,3,6.4|
0,4,7|
0,5,7.1|
0,6,8.3|
0,7,0.71|
1,0,6.8|
1,1,0.7|
1,2,5.2|
1,3,2|
1,4,1.6|
1,5,1.9|
1,6,6.1|
1,7,6.1|
2,0,5.2|
2,1,6.8|
2,2,1.7|
2,3,7|
2,4,6.6|
2,5,9.9|
2,6,9.9|
2,7,1.1|
3,0,7.1|
3,1,4.4|
3,2,7.6|
3,3,0.35|
3,4,9.2|
3,5,1.4|
3,6,4.8|
3,7,1.6|
4,0,3.4|
4,1,4.2|
4,2,2.1|
4,3,0.64|
4,4,3.1|
4,5,6.3|
4,6,7.5|
4,7,6.2|
5,0,2.4|
5,1,3|
5,2,5.9|
5,3,8.2|
5,4,7|
5,5,3.3|
5,6,3.1|
5,7,5|
6,0,3.3|
6,1,5.6|
6,2,5.6|
6,3,7.5|
6,4,3.7|
6,5,5.5|
6,6,2.8|
6,7,5.6|
7,0,5.5|
7,1,2|
7,2,3.9|
7,3,5|
7,4,8.4|
7,5,1.8|
7,6,6.4|
7,7,9.9|
];
constraint_x6_x2=[
0,0,3.7|
0,1,9.1|
0,2,4.1|
0,3,9.5|
0,4,6.5|
0,5,6.2|
0,6,5.8|
0,7,1.6|
1,0,6.4|
1,1,6.5|
1,2,8.4|
1,3,7.7|
1,4,8.8|
1,5,5.6|
1,6,6.1|
1,7,0.15|
2,0,4|
2,1,9.4|
2,2,8.5|
2,3,9.3|
2,4,3|
2,5,3.8|
2,6,4.3|
2,7,2.2|
3,0,4.9|
3,1,0.41|
3,2,8.8|
3,3,7.9|
3,4,7.3|
3,5,9.7|
3,6,8.5|
3,7,8.5|
4,0,4.8|
4,1,5.9|
4,2,0.92|
4,3,6.8|
4,4,8.3|
4,5,9|
4,6,1.8|
4,7,7.1|
5,0,8.9|
5,1,4.5|
5,2,5.7|
5,3,2.8|
5,4,3.4|
5,5,0.29|
5,6,2.9|
5,7,0.49|
6,0,1.3|
6,1,3.9|
6,2,8.2|
6,3,1.3|
6,4,4.7|
6,5,3.3|
6,6,0.22|
6,7,3.8|
7,0,0.19|
7,1,8.2|
7,2,4.3|
7,3,7.6|
7,4,5|
7,5,1.9|
7,6,6|
7,7,5.6|
];
constraint_x7_x3=[
0,0,7.5|
0,1,7.8|
0,2,4|
0,3,6.4|
0,4,0.74|
0,5,6.7|
0,6,2.5|
0,7,4.2|
1,0,9.9|
1,1,5.3|
1,2,9.2|
1,3,1.2|
1,4,1.1|
1,5,1.1|
1,6,2|
1,7,5.2|
2,0,5.8|
2,1,5|
2,2,4.2|
2,3,8.8|
2,4,2.9|
2,5,5.3|
2,6,0.24|
2,7,2.2|
3,0,4.9|
3,1,4.6|
3,2,6.7|
3,3,5|
3,4,2.7|
3,5,3.9|
3,6,3.5|
3,7,8.6|
4,0,9.9|
4,1,9.7|
4,2,2.8|
4,3,6.8|
4,4,8.5|
4,5,9.4|
4,6,7.1|
4,7,1.9|
5,0,1.8|
5,1,6.3|
5,2,3.2|
5,3,7.9|
5,4,2.9|
5,5,0.66|
5,6,5.4|
5,7,0.92|
6,0,4.3|
6,1,9.6|
6,2,5.9|
6,3,1.4|
6,4,1.9|
6,5,8.7|
6,6,5.9|
6,7,4.4|
7,0,1.8|
7,1,5.6|
7,2,5.2|
7,3,7.3|
7,4,9.3|
7,5,0.44|
7,6,5.9|
7,7,5.9|
];
constraint_x8_x4=[
0,0,9.4|
0,1,7|
0,2,4.8|
0,3,9.5|
0,4,0.74|
0,5,5.9|
0,6,1.2|
0,7,1.4|
1,0,1.6|
1,1,0.79|
1,2,6.6|
1,3,0.62|
1,4,0.31|
1,5,6.9|
1,6,8.9|
1,7,4.6|
2,0,1.3|
2,1,8.6|
2,2,7.5|
2,3,9.6|
2,4,2.7|
2,5,1.2|
2,6,4.1|
2,7,0.33|
3,0,6.8|
3,1,9.3|
3,2,9.7|
3,3,1.4|
3,4,0.91|
3,5,2.4|
3,6,3.2|
3,7,4.7|
4,0,5.4|
4,1,6|
4,2,6.3|
4,3,5.9|
4,4,6.9|
4,5,2.6|
4,6,9.5|
4,7,5.5|
5,0,8.4|
5,1,9.4|
5,2,0.65|
5,3,0.049|
5,4,3.9|
5,5,1.7|
5,6,5.6|
5,7,6.6|
6,0,2.2|
6,1,5|
6,2,1.9|
6,3,0.19|
6,4,7.2|
6,5,4.2|
6,6,1.3|
6,7,7.5|
7,0,0.2|
7,1,0.76|
7,2,2.3|
7,3,9.1|
7,4,7.6|
7,5,1.8|
7,6,4.5|
7,7,3.9|
];
constraint_x9_x5=[
0,0,3.4|
0,1,2.3|
0,2,9.1|
0,3,2.3|
0,4,2.2|
0,5,3.5|
0,6,3.7|
0,7,9.7|
1,0,1.7|
1,1,3.7|
1,2,8.9|
1,3,1.8|
1,4,8.5|
1,5,4.5|
1,6,6.7|
1,7,1.3|
2,0,2.2|
2,1,4.4|
2,2,9.9|
2,3,9.3|
2,4,6.2|
2,5,2|
2,6,5.4|
2,7,0.21|
3,0,8.9|
3,1,6|
3,2,1.2|
3,3,5.5|
3,4,2.5|
3,5,5.4|
3,6,3.9|
3,7,4.5|
4,0,6.4|
4,1,8.8|
4,2,8.8|
4,3,2.7|
4,4,6.7|
4,5,4.9|
4,6,6.8|
4,7,5.3|
5,0,0.68|
5,1,3.7|
5,2,6.7|
5,3,8.7|
5,4,8.7|
5,5,3.5|
5,6,6.5|
5,7,6|
6,0,5.9|
6,1,0.34|
6,2,6.4|
6,3,9.3|
6,4,5.2|
6,5,4.8|
6,6,4.8|
6,7,7.6|
7,0,2.5|
7,1,7.3|
7,2,3.9|
7,3,8.6|
7,4,6.5|
7,5,0.45|
7,6,4.5|
7,7,9.4|
];
constraint_x10_x6=[
0,0,0.42|
0,1,5.5|
0,2,2.5|
0,3,7.9|
0,4,9.2|
0,5,0.97|
0,6,8.8|
0,7,0.27|
1,0,4.3|
1,1,7|
1,2,9.6|
1,3,3.9|
1,4,9.7|
1,5,4.1|
1,6,3.4|
1,7,4.1|
2,0,6.8|
2,1,5.2|
2,2,8.4|
2,3,4.6|
2,4,8.9|
2,5,6.9|
2,6,5.7|
2,7,7.4|
3,0,7.8|
3,1,0.34|
3,2,9.5|
3,3,7|
3,4,9.6|
3,5,3|
3,6,1.1|
3,7,6|
4,0,1.4|
4,1,8.3|
4,2,6.6|
4,3,6.4|
4,4,5.2|
4,5,1.9|
4,6,6.3|
4,7,6.9|
5,0,2.6|
5,1,3.1|
5,2,8.6|
5,3,5.8|
5,4,5.9|
5,5,7.7|
5,6,0.48|
5,7,5.8|
6,0,0.77|
6,1,6.9|
6,2,6.3|
6,3,3.2|
6,4,5.1|
6,5,6.2|
6,6,4|
6,7,2|
7,0,1.4|
7,1,4.8|
7,2,6.6|
7,3,6.1|
7,4,6.6|
7,5,4.6|
7,6,8.2|
7,7,9|
];
constraint_x11_x7=[
0,0,4.3|
0,1,9|
0,2,9.2|
0,3,7.6|
0,4,8|
0,5,3.1|
0,6,2.7|
0,7,2|
1,0,4.7|
1,1,6.1|
1,2,4.6|
1,3,2.7|
1,4,6.1|
1,5,1|
1,6,6.1|
1,7,5.4|
2,0,3.3|
2,1,8.7|
2,2,6.7|
2,3,2.2|
2,4,4.7|
2,5,6.8|
2,6,0.13|
2,7,8.3|
3,0,2.6|
3,1,2.7|
3,2,5.9|
3,3,0.88|
3,4,8.8|
3,5,2.7|
3,6,0.61|
3,7,5.2|
4,0,2.2|
4,1,1.8|
4,2,3.4|
4,3,1.1|
4,4,3.4|
4,5,2.7|
4,6,7.3|
4,7,0.43|
5,0,7.3|
5,1,9.3|
5,2,3.8|
5,3,3.7|
5,4,6.4|
5,5,1.4|
5,6,2.7|
5,7,9.2|
6,0,8.8|
6,1,0.76|
6,2,5.5|
6,3,0.75|
6,4,0.6|
6,5,9.9|
6,6,3.3|
6,7,4.9|
7,0,4.9|
7,1,5.4|
7,2,9.3|
7,3,7.1|
7,4,7.6|
7,5,2.5|
7,6,7.2|
7,7,9.2|
];
constraint_x12_x8=[
0,0,9.5|
0,1,6|
0,2,2.9|
0,3,0.28|
0,4,1.2|
0,5,8.1|
0,6,6.9|
0,7,5.5|
1,0,8.4|
1,1,3.6|
1,2,9.3|
1,3,8.2|
1,4,7.3|
1,5,0.18|
1,6,5.2|
1,7,8.5|
2,0,9.2|
2,1,4.6|
2,2,7.8|
2,3,6|
2,4,3.3|
2,5,7.1|
2,6,3.6|
2,7,5.4|
3,0,2.7|
3,1,0.0043|
3,2,7.7|
3,3,3.9|
3,4,6.3|
3,5,3.7|
3,6,6.1|
3,7,5.7|
4,0,9.8|
4,1,7.7|
4,2,4|
4,3,9.7|
4,4,6.3|
4,5,7.1|
4,6,9.8|
4,7,5|
5,0,2.4|
5,1,4.7|
5,2,8.5|
5,3,3.4|
5,4,5.2|
5,5,3.8|
5,6,8.5|
5,7,9.3|
6,0,6.2|
6,1,7.9|
6,2,5.4|
6,3,8.9|
6,4,8.1|
6,5,4.9|
6,6,6.6|
6,7,2|
7,0,5.5|
7,1,8|
7,2,0.42|
7,3,3.9|
7,4,4.1|
7,5,7.7|
7,6,6.2|
7,7,3.8|
];
constraint_x13_x9=[
0,0,8.3|
0,1,4.3|
0,2,7|
0,3,8.9|
0,4,4.5|
0,5,2.9|
0,6,6.3|
0,7,0.15|
1,0,8.5|
1,1,3.1|
1,2,2.6|
1,3,3.5|
1,4,0.36|
1,5,4.7|
1,6,7.8|
1,7,0.39|
2,0,4.5|
2,1,8.8|
2,2,9.9|
2,3,7.4|
2,4,1.3|
2,5,8.6|
2,6,3.8|
2,7,8.3|
3,0,8.9|
3,1,1.3|
3,2,5.3|
3,3,9.5|
3,4,1.2|
3,5,7.2|
3,6,3.7|
3,7,2.3|
4,0,7.1|
4,1,0.96|
4,2,7.7|
4,3,9|
4,4,2.8|
4,5,3.1|
4,6,6.9|
4,7,7|
5,0,8.2|
5,1,2.1|
5,2,7.2|
5,3,4.1|
5,4,6.1|
5,5,7.3|
5,6,4|
5,7,7|
6,0,7.8|
6,1,9.7|
6,2,3.4|
6,3,6.4|
6,4,0.27|
6,5,7.4|
6,6,7.3|
6,7,8.8|
7,0,3.2|
7,1,1.1|
7,2,7.6|
7,3,7.7|
7,4,1.4|
7,5,8.2|
7,6,4.2|
7,7,7.7|
];
constraint_x14_x10=[
0,0,7.3|
0,1,5.4|
0,2,7.8|
0,3,7.5|
0,4,2.3|
0,5,0.63|
0,6,6.5|
0,7,4.2|
1,0,2.7|
1,1,8.7|
1,2,8.6|
1,3,4.2|
1,4,2.6|
1,5,4.7|
1,6,5.4|
1,7,4.5|
2,0,3.9|
2,1,5.4|
2,2,2.7|
2,3,8|
2,4,7.3|
2,5,4.5|
2,6,5.3|
2,7,8|
3,0,8.8|
3,1,8.7|
3,2,7.9|
3,3,0.34|
3,4,0.34|
3,5,2.2|
3,6,1.7|
3,7,1.5|
4,0,0.25|
4,1,8.1|
4,2,4.3|
4,3,2.5|
4,4,2.7|
4,5,0.55|
4,6,5.2|
4,7,8.2|
5,0,9.6|
5,1,8.7|
5,2,2.9|
5,3,5|
5,4,6.6|
5,5,9.7|
5,6,0.51|
5,7,0.94|
6,0,8.6|
6,1,5.1|
6,2,10|
6,3,2.9|
6,4,9.5|
6,5,8.3|
6,6,4.8|
6,7,3.2|
7,0,0.41|
7,1,8|
7,2,9.8|
7,3,1.5|
7,4,7.4|
7,5,9.8|
7,6,4.9|
7,7,7|
];
constraint_x15_x11=[
0,0,5.6|
0,1,0.013|
0,2,1.2|
0,3,9.7|
0,4,1.8|
0,5,0.2|
0,6,7.4|
0,7,0.41|
1,0,9.4|
1,1,8.4|
1,2,2.6|
1,3,6.6|
1,4,3.1|
1,5,1.1|
1,6,8.2|
1,7,3|
2,0,0.76|
2,1,8.3|
2,2,0.47|
2,3,4.1|
2,4,6.9|
2,5,0.61|
2,6,2|
2,7,9.2|
3,0,5.7|
3,1,7.3|
3,2,8.2|
3,3,5.1|
3,4,4.9|
3,5,8.9|
3,6,7.8|
3,7,0.047|
4,0,6.6|
4,1,3.7|
4,2,2.2|
4,3,4.1|
4,4,1.9|
4,5,7.3|
4,6,6.6|
4,7,2.7|
5,0,8|
5,1,4.1|
5,2,9.3|
5,3,1.4|
5,4,7.2|
5,5,4.7|
5,6,1.9|
5,7,9|
6,0,9.7|
6,1,9|
6,2,7.4|
6,3,8.7|
6,4,8.2|
6,5,5.3|
6,6,1.1|
6,7,8.9|
7,0,9.5|
7,1,7.8|
7,2,7.4|
7,3,1.5|
7,4,2.6|
7,5,4.1|
7,6,7.9|
7,7,2.3|
];
constraint_x16_x12=[
0,0,7.5|
0,1,2.9|
0,2,2.5|
0,3,2|
0,4,3.5|
0,5,0.37|
0,6,8.1|
0,7,6.2|
1,0,1.9|
1,1,2.5|
1,2,6.4|
1,3,0.76|
1,4,9.2|
1,5,5.5|
1,6,6|
1,7,5.8|
2,0,2.5|
2,1,3.6|
2,2,3.4|
2,3,1|
2,4,1.6|
2,5,3.9|
2,6,5.7|
2,7,9.9|
3,0,8.8|
3,1,7|
3,2,2|
3,3,4.2|
3,4,5.5|
3,5,2.7|
3,6,5.2|
3,7,7.9|
4,0,8.9|
4,1,0.78|
4,2,7.8|
4,3,6.3|
4,4,5.5|
4,5,0.29|
4,6,8.4|
4,7,1.1|
5,0,8.3|
5,1,0.15|
5,2,8.8|
5,3,0.5|
5,4,2.6|
5,5,0.72|
5,6,8.2|
5,7,3.4|
6,0,5.1|
6,1,2|
6,2,8.9|
6,3,2.4|
6,4,4.3|
6,5,2|
6,6,8.2|
6,7,2.9|
7,0,2.2|
7,1,7|
7,2,6.5|
7,3,4.7|
7,4,3.9|
7,5,6.8|
7,6,0.16|
7,7,7.5|
];
constraint_x1_y1=[
0,0,6.9|
0,1,3.5|
0,2,4.9|
0,3,5.6|
0,4,2.9|
0,5,5.7|
0,6,6.6|
0,7,9.5|
1,0,5.6|
1,1,5.3|
1,2,9.6|
1,3,6.5|
1,4,7.4|
1,5,6.8|
1,6,7.2|
1,7,7.6|
2,0,7.8|
2,1,9.7|
2,2,4.4|
2,3,0.89|
2,4,4.5|
2,5,4.5|
2,6,7.9|
2,7,6.2|
3,0,0.095|
3,1,5.5|
3,2,9.6|
3,3,8.7|
3,4,8.5|
3,5,3.9|
3,6,7.1|
3,7,7.3|
4,0,4.9|
4,1,5|
4,2,7.9|
4,3,1.3|
4,4,9.8|
4,5,8.2|
4,6,3.6|
4,7,8.8|
5,0,3.6|
5,1,1.4|
5,2,4.3|
5,3,6.8|
5,4,9.7|
5,5,0.13|
5,6,9.6|
5,7,0.81|
6,0,2|
6,1,8.5|
6,2,0.57|
6,3,9.2|
6,4,5.4|
6,5,9.2|
6,6,1.8|
6,7,7.6|
7,0,9.3|
7,1,6|
7,2,5.9|
7,3,4.9|
7,4,1.1|
7,5,4.8|
7,6,0.26|
7,7,0.8|
];
constraint_x2_y2=[
0,0,2.3|
0,1,2.6|
0,2,9.1|
0,3,2.6|
0,4,7.9|
0,5,9.6|
0,6,2.3|
0,7,0.9|
1,0,4.7|
1,1,6.1|
1,2,3.5|
1,3,2.8|
1,4,5.7|
1,5,2.4|
1,6,6|
1,7,6.9|
2,0,0.11|
2,1,3.1|
2,2,2.4|
2,3,2.1|
2,4,3.9|
2,5,3.6|
2,6,7.2|
2,7,9.1|
3,0,1.9|
3,1,7.7|
3,2,4.2|
3,3,8.2|
3,4,6.3|
3,5,4.7|
3,6,5.4|
3,7,7.6|
4,0,6.7|
4,1,2.1|
4,2,9.4|
4,3,8.9|
4,4,6.1|
4,5,8.1|
4,6,8.8|
4,7,2|
5,0,3.6|
5,1,4.3|
5,2,9|
5,3,0.74|
5,4,4.5|
5,5,2.5|
5,6,6.1|
5,7,3.8|
6,0,4.5|
6,1,4.6|
6,2,4.9|
6,3,0.84|
6,4,7.7|
6,5,2.6|
6,6,8.6|
6,7,5.8|
7,0,9.8|
7,1,1.7|
7,2,1.7|
7,3,1.6|
7,4,5.2|
7,5,3.4|
7,6,6.6|
7,7,1.2|
];
constraint_x3_y3=[
0,0,4.5|
0,1,1.4|
0,2,6.8|
0,3,0.49|
0,4,7.6|
0,5,3.6|
0,6,4.3|
0,7,7.6|
1,0,1.4|
1,1,1.8|
1,2,2.8|
1,3,4.4|
1,4,7|
1,5,1.5|
1,6,3.4|
1,7,3.4|
2,0,3.3|
2,1,10|
2,2,6.2|
2,3,0.91|
2,4,6.2|
2,5,4|
2,6,7.5|
2,7,1.8|
3,0,3.9|
3,1,8.7|
3,2,5.5|
3,3,5.7|
3,4,4.8|
3,5,9.3|
3,6,5.3|
3,7,5.2|
4,0,9|
4,1,7.6|
4,2,2|
4,3,4.1|
4,4,1.2|
4,5,3.5|
4,6,5.8|
4,7,9.5|
5,0,7.1|
5,1,6.8|
5,2,9.6|
5,3,2.4|
5,4,4.1|
5,5,6.4|
5,6,2.7|
5,7,7.8|
6,0,1.4|
6,1,9.7|
6,2,6.7|
6,3,3.6|
6,4,0.74|
6,5,3.7|
6,6,2.2|
6,7,9.5|
7,0,9.2|
7,1,8.5|
7,2,6.6|
7,3,2.4|
7,4,2.1|
7,5,6.9|
7,6,2.7|
7,7,2.7|
];
constraint_x4_y4=[
0,0,2.5|
0,1,7.1|
0,2,3|
0,3,0.0099|
0,4,1.1|
0,5,9.9|
0,6,9.5|
0,7,8.1|
1,0,9.2|
1,1,6.6|
1,2,4.1|
1,3,0.29|
1,4,2.9|
1,5,5.7|
1,6,9.5|
1,7,5.4|
2,0,10|
2,1,8.9|
2,2,0.21|
2,3,7.4|
2,4,3.9|
2,5,8|
2,6,1.6|
2,7,6.2|
3,0,1.3|
3,1,5.6|
3,2,9.6|
3,3,3.6|
3,4,2|
3,5,1|
3,6,1.5|
3,7,0.99|
4,0,8.3|
4,1,4.3|
4,2,0.72|
4,3,5.9|
4,4,1.7|
4,5,6.6|
4,6,6.2|
4,7,2.5|
5,0,0.4|
5,1,7|
5,2,8.5|
5,3,4.9|
5,4,4.5|
5,5,7.4|
5,6,6.5|
5,7,6|
6,0,0.59|
6,1,2.5|
6,2,3.3|
6,3,9.4|
6,4,1.2|
6,5,6.4|
6,6,9.6|
6,7,9.8|
7,0,5.2|
7,1,9.4|
7,2,3|
7,3,6.9|
7,4,0.37|
7,5,8.1|
7,6,1.8|
7,7,9.5|
];
constraint_x5_y5=[
0,0,6.6|
0,1,2.9|
0,2,7.2|
0,3,3.2|
0,4,2.3|
0,5,6.8|
0,6,6.6|
0,7,8.3|
1,0,0.94|
1,1,1.6|
1,2,9.7|
1,3,5.3|
1,4,4.2|
1,5,2.4|
1,6,4.7|
1,7,4.8|
2,0,5.7|
2,1,9.4|
2,2,8.7|
2,3,1|
2,4,0.057|
2,5,7.3|
2,6,7.2|
2,7,4|
3,0,3.3|
3,1,8.6|
3,2,10|
3,3,1.3|
3,4,8.1|
3,5,0.85|
3,6,0.99|
3,7,4.6|
4,0,7.4|
4,1,8.2|
4,2,8.6|
4,3,0.78|
4,4,0.87|
4,5,7.9|
4,6,2.2|
4,7,0.76|
5,0,3.6|
5,1,5.6|
5,2,5.8|
5,3,3.6|
5,4,5.7|
5,5,3.5|
5,6,3.3|
5,7,4.7|
6,0,5.5|
6,1,6.5|
6,2,5.2|
6,3,6.9|
6,4,6.1|
6,5,1.4|
6,6,1.1|
6,7,6|
7,0,3.2|
7,1,7.2|
7,2,8.1|
7,3,1.8|
7,4,7.3|
7,5,0.2|
7,6,3.6|
7,7,8.1|
];
constraint_x6_y6=[
0,0,9.7|
0,1,7.4|
0,2,9|
0,3,5.6|
0,4,2.9|
0,5,2.3|
0,6,5.6|
0,7,6.6|
1,0,1.4|
1,1,5.8|
1,2,1.4|
1,3,1.7|
1,4,6.4|
1,5,1.8|
1,6,1.3|
1,7,5.6|
2,0,4.3|
2,1,0.88|
2,2,6.5|
2,3,4.3|
2,4,4.6|
2,5,8|
2,6,5.3|
2,7,1.3|
3,0,1.3|
3,1,4.2|
3,2,0.35|
3,3,7.4|
3,4,8.5|
3,5,1.7|
3,6,6.8|
3,7,1.7|
4,0,5.2|
4,1,9.4|
4,2,9.2|
4,3,4.2|
4,4,8|
4,5,0.57|
4,6,0.29|
4,7,9.5|
5,0,1.5|
5,1,0.91|
5,2,3.4|
5,3,4.8|
5,4,8.3|
5,5,6.9|
5,6,4.8|
5,7,7.5|
6,0,2|
6,1,9.2|
6,2,4.2|
6,3,9.6|
6,4,0.028|
6,5,7.5|
6,6,5.5|
6,7,3.7|
7,0,9.9|
7,1,2.2|
7,2,2.4|
7,3,2|
7,4,6.8|
7,5,6.8|
7,6,5.3|
7,7,3.4|
];
constraint_x7_y7=[
0,0,1.5|
0,1,0.54|
0,2,3.7|
0,3,2.1|
0,4,2.4|
0,5,2.2|
0,6,0.24|
0,7,3.1|
1,0,3.3|
1,1,4.6|
1,2,1.9|
1,3,4|
1,4,9.5|
1,5,0.14|
1,6,8|
1,7,4.6|
2,0,0.64|
2,1,7.2|
2,2,5.8|
2,3,5.7|
2,4,7.8|
2,5,1.4|
2,6,9.8|
2,7,0.17|
3,0,2.4|
3,1,7.9|
3,2,1.6|
3,3,3.5|
3,4,0.59|
3,5,4.7|
3,6,0.18|
3,7,9.5|
4,0,9.6|
4,1,5.2|
4,2,1.1|
4,3,6.7|
4,4,8|
4,5,9.1|
4,6,3.1|
4,7,8.3|
5,0,9.7|
5,1,8|
5,2,6.1|
5,3,2.4|
5,4,2.2|
5,5,8.2|
5,6,2.9|
5,7,3.1|
6,0,2.1|
6,1,2.2|
6,2,2.1|
6,3,2.9|
6,4,2|
6,5,0.18|
6,6,2.5|
6,7,2.3|
7,0,8.3|
7,1,3|
7,2,4.7|
7,3,0.53|
7,4,7.9|
7,5,2|
7,6,4.2|
7,7,5.3|
];
initial_distribution_y1=[0.22,0.02,0.057,0.017,0.11,0.21,0.15,0.22];
initial_distribution_y2=[0.18,0.03,0.18,0.19,0.014,0.15,0.092,0.16];
initial_distribution_y3=[0.091,0.053,0.072,0.063,0.19,0.18,0.16,0.19];
initial_distribution_y4=[0.11,0.076,0.0059,0.2,0.13,0.14,0.17,0.18];
initial_distribution_y5=[0.12,0.14,0.092,0.039,0.14,0.17,0.13,0.17];
initial_distribution_y6=[0.17,0.03,0.14,0.17,0.093,0.17,0.029,0.2];
initial_distribution_y7=[0.12,0.23,0.2,0.19,0.14,0.019,0.092,0.0058];
transition_y1=[
0.12,0.04,0.21,0.14,0.18,0.046,0.039,0.22|
0.14,0.16,0.13,0.13,0.087,0.066,0.13,0.15|
0.18,0.15,0.038,0.04,0.19,0.056,0.19,0.16|
0.13,0.18,0.14,0.071,0.1,0.033,0.17,0.16|
0.062,0.2,0.076,0.17,0.059,0.19,0.14,0.1|
0.14,0.016,0.22,0.17,0.14,0.11,0.18,0.019|
0.22,0.13,0.019,0.044,0.12,0.056,0.14,0.27|
0.16,0.15,0.077,0.11,0.1,0.076,0.16,0.17|
];
transition_y2=[
0.11,0.14,0.13,0.14,0.14,0.075,0.076,0.19|
0.25,0.032,0.048,0.057,0.056,0.16,0.21,0.19|
0.057,0.16,0.2,0.16,0.082,0.15,0.083,0.11|
0.035,0.2,0.17,0.15,0.073,0.19,0.17,0.0075|
0.12,0.099,0.078,0.17,0.11,0.13,0.13,0.15|
0.082,0.0096,0.19,0.21,0.096,0.13,0.18,0.098|
0.13,0.15,0.064,0.086,0.19,0.17,0.0041,0.2|
0.22,0.14,0.0047,0.21,0.031,0.077,0.23,0.093|
];
transition_y3=[
0.095,0.15,0.032,0.19,0.14,0.23,0.06,0.11|
0.15,0.17,0.051,0.14,0.12,0.15,0.079,0.13|
0.041,0.0028,0.051,0.21,0.24,0.19,0.021,0.24|
0.037,0.22,0.081,0.14,0.15,0.098,0.22,0.053|
0.27,0.034,0.14,0.13,0.072,0.079,0.23,0.041|
0.16,0.13,0.13,0.01,0.17,0.089,0.15,0.16|
0.18,0.12,0.18,0.13,0.067,0.1,0.054,0.17|
0.16,0.16,0.022,0.14,0.18,0.13,0.18,0.022|
];
transition_y4=[
0.064,0.077,0.068,0.17,0.15,0.22,0.19,0.057|
0.06,0.14,0.17,0.19,0.15,0.039,0.081,0.16|
0.033,0.038,0.14,0.2,0.2,0.11,0.15,0.12|
0.044,0.072,0.2,0.18,0.19,0.082,0.092,0.14|
0.12,0.18,0.26,0.13,0.068,0.029,0.09,0.12|
0.16,0.19,0.0071,0.073,0.22,0.24,0.0027,0.11|
0.083,0.041,0.11,0.12,0.23,0.097,0.22,0.099|
0.037,0.2,0.09,0.18,0.22,0.069,0.055,0.16|
];
transition_y5=[
0.032,0.069,0.16,0.11,0.18,0.13,0.17,0.16|
0.34,0.027,0.095,0.0094,0.021,0.051,0.4,0.063|
0.12,0.08,0.11,0.061,0.23,0.17,0.029,0.2|
0.037,0.022,0.23,0.13,0.23,0.16,0.15,0.034|
0.082,0.19,0.0084,0.049,0.2,0.16,0.15,0.16|
0.21,0.24,0.046,0.0062,0.089,0.18,0.15,0.084|
0.16,0.25,0.048,0.065,0.23,0.19,0.025,0.03|
0.081,0.31,0.15,0.19,0.049,0.0075,0.12,0.092|
];
transition_y6=[
0.17,0.21,0.056,0.16,0.058,0.24,0.05,0.065|
0.071,0.13,0.023,0.096,0.18,0.068,0.093,0.34|
0.19,0.029,0.13,0.067,0.17,0.14,0.17,0.1|
0.14,0.16,0.11,0.14,0.15,0.0033,0.15,0.14|
0.14,0.13,0.14,0.047,0.2,0.18,0.11,0.062|
0.082,0.16,0.23,0.2,0.081,0.082,0.061,0.1|
0.21,0.23,0.098,0.086,0.022,0.13,0.028,0.2|
0.14,0.011,0.09,0.24,0.045,0.061,0.2,0.22|
];
transition_y7=[
0.2,0.087,0.14,0.03,0.15,0.04,0.14,0.21|
0.15,0.11,0.14,0.15,0.0063,0.17,0.085,0.18|
0.15,0.041,0.046,0.11,0.14,0.13,0.25,0.13|
0.0043,0.0051,0.17,0.2,0.11,0.041,0.1,0.37|
0.1,0.11,0.078,0.15,0.16,0.14,0.25,0.0079|
0.1,0.12,0.17,0.094,0.087,0.065,0.14,0.22|
0.16,0.012,0.022,0.16,0.25,0.24,0.064,0.096|
0.037,0.1,0.13,0.24,0.16,0.19,0.092,0.041|
];
